utils/lkh_tsp_solver/resource/single.tsp
NAME : single
TYPE : ATSP
DIMENSION : 7
EDGE_WEIGHT_TYPE : EXPLICIT
EDGE_WEIGHT_FORMAT : FULL_MATRIX
EDGE_WEIGHT_SECTION
0 1317 1840 210 1021 1177 317 
0 0 508 1015 390 215 1106 
0 508 0 1397 874 695 1349 
0 1015 1397 0 627 769 155 
0 390 874 627 0 176 663 
0 215 695 769 176 0 837 
0 1106 1349 155 663 837 0 
EOF