utils/lkh_tsp_solver/resource/single.txt
NAME : single.1927.tour
COMMENT : Length = 1927
COMMENT : Found by LKH [Keld Helsgaun] Tue Nov  1 15:29:01 2022
TYPE : TOUR
DIMENSION : 7
TOUR_SECTION
1
4
7
5
6
2
3
-1
EOF
